659924
1,36,7,210,183,20,117,16,189,185,60,138,3,208,159,23,69,226,177,51,98,42,160,113,73,209,218,206,173,148,131,124,188,181,136,195,193,84,29,114,119,86,70,126,122,152,191,201,10,198,200,65,154,164,174,76,57,95,79,167,85,123,25,61,182,80,132,149,115,2,82,158,77,222,41,128,141,24,66,216,100,53,92,18,56,54,175,105,202,99,190,219,106,121,180,103,187,12,146,88,228,109,186,171,150,90,170,142,4,21,217,153,129,33,224,38,203,6,104,212,45,230,204,172,168,93,213,52,221,59,58,139,11,143,197,214,46,125,227,19,134,194,97,165,14,110,120,8,15,137,30,220,13,48,111,225,47,17,176,223,44,64,5,156,211,145,144,26,22,91,96,68,9,166,101,184,161,116,89,107,196,179,192,37,34,205,75,215,78,28,151,50,108,94,35,87,55,62,102,130,81,40,169,27,112,155,133,229,162,135,83,157,74,43,31,199,178,163,127,147,207,39,67,49,118,71,140,32,63,72,1